! chip_antenna.s1p -- SYNTHETIC. Not a measurement and not a vendor file.
! A series RLC resonator standing in for a 2.4 GHz chip antenna:
! R = 22 Ohm, L = 4 nH, C = 1.0132 pF (series resonance at 2.50 GHz).
! Written by hand for fang's antenna_match example, so the example has a
! model to read; its provenance in the program is an assumption.
# GHz S MA R 50
2.30 0.410947 -151.172
2.31 0.408802 -152.586
2.32 0.406762 -154.007
2.33 0.404829 -155.434
2.34 0.403004 -156.866
2.35 0.401287 -158.303
2.36 0.399681 -159.744
2.37 0.398184 -161.189
2.38 0.396799 -162.637
2.39 0.395526 -164.087
2.40 0.394365 -165.539
2.41 0.393316 -166.992
2.42 0.392379 -168.445
2.43 0.391555 -169.897
2.44 0.390843 -171.349
2.45 0.390242 -172.799
2.46 0.389752 -174.247
2.47 0.389373 -175.691
2.48 0.389103 -177.132
2.49 0.388942 -178.569
2.50 0.388889 180.000
2.51 0.388942 178.574
2.52 0.389100 177.155
2.53 0.389361 175.743
2.54 0.389725 174.338
2.55 0.390189 172.941
2.56 0.390751 171.553
2.57 0.391411 170.174
2.58 0.392164 168.805
2.59 0.393011 167.446
2.60 0.393948 166.097
